20 51 123
1 5 3
1 6 3
1 10 2
1 11 4
1 19 5
2 4 4
2 5 2
2 10 4
2 11 3
2 12 5
2 20 4
3 5 2
3 6 5
3 9 5
3 12 3
3 15 3
3 19 1
3 20 1
4 5 4
4 9 1
4 14 3
4 15 5
4 16 3
4 20 2
5 7 3
5 14 3
5 20 5
6 7 1
6 11 4
6 13 1
6 19 5
7 11 1
7 12 4
7 14 1
7 15 5
8 10 2
8 12 2
9 12 3
9 15 5
10 12 4
10 14 5
10 17 2
11 16 4
11 19 3
12 15 3
13 15 3
14 19 4
15 19 1
17 18 3
17 20 2
18 19 5
